&CONTROL
  calculation = 'scf'
  prefix = 'Al_ord_delith'
  outdir = './tmp_Al_ord_delith'
  pseudo_dir = './pseudo'
  tprnfor = .false.
  tstress = .false.
  verbosity = 'low'
  disk_io = 'low'
/

&SYSTEM
  ibrav = 0
  nat = 54
  ntyp = 3
  ecutwfc = 40.0
  ecutrho = 320.0
  occupations = 'smearing'
  smearing = 'mv'
  degauss = 0.02
  nspin = 2
  starting_magnetization(2) = 0.5
  lda_plus_u = .true.
  Hubbard_U(2) = 3.32
/

&ELECTRONS
  conv_thr = 1e-05
  mixing_mode = 'local-TF'
  mixing_beta = 0.1
  electron_maxstep = 500
  diagonalization = 'david'
/

CELL_PARAMETERS angstrom
      8.6250000000     0.0000000000     0.0000000000
     -4.3125000000     7.4694691076     0.0000000000
      0.0000000000     0.0000000000    28.4000000000

ATOMIC_SPECIES
  Al      26.9820 Al.pbe-n-kjpaw_psl.1.0.0.UPF
  Co      58.9330 Co.pbe-spn-kjpaw_psl.0.3.1.UPF
  O       15.9990 O.pbe-n-kjpaw_psl.1.0.0.UPF

ATOMIC_POSITIONS crystal
  Al       0.0000000000     0.0000000000    -0.0000000000
  Al       0.0000000000     0.0000000000     0.5000000000
  Co       0.0000000000     0.3695507614    -0.0000000000
  Co       0.0000000000     0.3695507614     0.5000000000
  Co       1.0000000000     0.6304492386    -0.0000000000
  Co       1.0000000000     0.6304492386     0.5000000000
  Co       0.3695507614    -0.0000000000    -0.0000000000
  Co       0.3695507614    -0.0000000000     0.5000000000
  Co       0.3695507614     0.3695507614    -0.0000000000
  Co       0.3695507614     0.3695507614     0.5000000000
  Co       0.3333333333     0.6666666667    -0.0000000000
  Co       0.3333333333     0.6666666667     0.5000000000
  Co       0.6304492386    -0.0000000000    -0.0000000000
  Co       0.6304492386    -0.0000000000     0.5000000000
  Co       0.6666666667     0.3333333333    -0.0000000000
  Co       0.6666666667     0.3333333333     0.5000000000
  Co       0.6304492386     0.6304492386    -0.0000000000
  Co       0.6304492386     0.6304492386     0.5000000000
  O       -0.0000000000    -0.0000000000     0.0602524449
  O       -0.0000000000    -0.0000000000     0.5602524449
  O       -0.0000000000     0.2784895718     0.0486869087
  O       -0.0000000000     0.2784895717     0.5486869087
  O        1.0000000000     0.7215104282     0.0486869087
  O        1.0000000000     0.7215104283     0.5486869087
  O        0.2784895718    -0.0000000000     0.0486869087
  O        0.2784895717    -0.0000000000     0.5486869087
  O        0.2784895718     0.2784895718     0.0486869087
  O        0.2784895717     0.2784895717     0.5486869087
  O        0.3333333333     0.6666666667     0.0566440142
  O        0.3333333333     0.6666666667     0.5566440142
  O        0.7215104282    -0.0000000000     0.0486869087
  O        0.7215104283    -0.0000000000     0.5486869087
  O        0.6666666667     0.3333333333     0.0566440142
  O        0.6666666667     0.3333333333     0.5566440142
  O        0.7215104282     0.7215104282     0.0486869087
  O        0.7215104283     0.7215104283     0.5486869087
  O       -0.0000000000    -0.0000000000     0.4397475551
  O       -0.0000000000    -0.0000000000     0.9397475551
  O       -0.0000000000     0.2784895718     0.4513130913
  O       -0.0000000000     0.2784895717     0.9513130913
  O        1.0000000000     0.7215104282     0.4513130913
  O        1.0000000000     0.7215104283     0.9513130913
  O        0.2784895718    -0.0000000000     0.4513130913
  O        0.2784895717    -0.0000000000     0.9513130913
  O        0.2784895718     0.2784895718     0.4513130913
  O        0.2784895717     0.2784895717     0.9513130913
  O        0.3333333333     0.6666666667     0.4433559858
  O        0.3333333333     0.6666666667     0.9433559858
  O        0.7215104282    -0.0000000000     0.4513130913
  O        0.7215104283    -0.0000000000     0.9513130913
  O        0.6666666667     0.3333333333     0.4433559858
  O        0.6666666667     0.3333333333     0.9433559858
  O        0.7215104282     0.7215104282     0.4513130913
  O        0.7215104283     0.7215104283     0.9513130913

K_POINTS gamma
