&CONTROL
  calculation = 'scf'
  prefix = 'Al_sqs0_lith'
  outdir = './tmp_Al_sqs0_lith'
  pseudo_dir = './pseudo'
  tprnfor = .false.
  tstress = .false.
  verbosity = 'low'
  disk_io = 'low'
/

&SYSTEM
  ibrav = 0
  nat = 72
  ntyp = 4
  ecutwfc = 40.0
  ecutrho = 320.0
  occupations = 'smearing'
  smearing = 'mv'
  degauss = 0.02
  nspin = 2
  starting_magnetization(2) = 0.5
  lda_plus_u = .true.
  Hubbard_U(2) = 3.32
/

&ELECTRONS
  conv_thr = 1e-05
  mixing_mode = 'local-TF'
  mixing_beta = 0.1
  electron_maxstep = 500
  diagonalization = 'david'
/

CELL_PARAMETERS angstrom
      8.6250000000     0.0000000000     0.0000000000
     -4.3125000000     7.4694691076     0.0000000000
      0.0000000000     0.0000000000    28.4000000000

ATOMIC_SPECIES
  Al      26.9820 Al.pbe-n-kjpaw_psl.1.0.0.UPF
  Co      58.9330 Co.pbe-spn-kjpaw_psl.0.3.1.UPF
  Li       6.9410 Li.pbe-s-kjpaw_psl.1.0.0.UPF
  O       15.9990 O.pbe-n-kjpaw_psl.1.0.0.UPF

ATOMIC_POSITIONS crystal
  Li       0.1673593458     0.1297556161     0.2335356288
  Li       0.1599670091     0.1274868051     0.7562115295
  Li      -0.1383025925     0.2146225693     0.1589673520
  Li      -0.1707813721     0.2321056672     0.8446531922
  Li       0.8054874181     0.7116510846     0.2035038109
  Li       0.8141871394     0.7114401745     0.7905473146
  Li       0.1659781092    -0.1297607164     0.2335340466
  Li       0.1733647968    -0.1274894274     0.7562123648
  Li       0.5278499926     0.2883535169     0.2035047971
  Li       0.5191452241     0.2885591595     0.7905470687
  Li       0.4716497388     0.7853793082     0.1589753771
  Li       0.5041172975     0.7678990959     0.8446506096
  Li       0.6666717975     0.0000448171     0.2227278475
  Li       0.6666769848     0.0000140732     0.7769445342
  Li       0.5073455624     0.0800649231     0.2839814526
  Li       0.5227894227     0.0956135153     0.7111484416
  Li       0.8259689233     0.9199204568     0.2839764519
  Li       0.8105378781     0.9043799822     0.7111491251
  Co      -0.1183644041    -0.0764650554     0.0078570053
  Co      -0.0427748535     0.0788085905     0.4974470282
  Al      -0.0646452019     0.2930838734     0.0092693650
  Co       0.0320268859     0.3666286049     0.5017672393
  Co       0.9189729777     0.6606422418     0.0066716589
  Co       1.0332758310     0.6360203507     0.4983094403
  Co       0.4515650931     0.0764076880     0.0078559727
  Co       0.3781417232    -0.0799339333     0.4974584678
  Co       0.4143497769     0.3393138493     0.0066712079
  Co       0.2994513378     0.3633766140     0.4983093239
  Al       0.3981079549     0.7070162130     0.0092680341
  Co       0.2992596225     0.6313256548     0.5017876489
  Co       0.6666857074     0.0001005545     0.0090974654
  Co       0.6684716798     0.0017841259     0.5025172870
  Co       0.6899363735     0.3627624584     0.0073467660
  Co       0.7452084027     0.2902755663     0.4976643104
  Co       0.6433901597     0.6371412812     0.0073457880
  Co       0.5869654628     0.7117150875     0.4976736271
  O       -0.0942584537     0.4108602329     0.2068856233
  O       -0.2542800206    -0.3003815698     0.6581964882
  O        0.1318753786     0.5868911201     0.1432501072
  O        0.1545888660     0.4230232403     0.7203480285
  O        1.1766494273     0.6496431042     0.1843057477
  O        0.9655023366     0.8990152906     0.7547311928
  O        0.4275795432    -0.4108811750     0.2068886755
  O        0.5876089772     0.3003842833     0.6582005090
  O        0.1566857284     0.3503525905     0.1843046724
  O        0.3678294332     0.1009824538     0.7547314247
  O        0.2014572395     0.4131080649     0.1432491889
  O        0.1787404278     0.5769746700     0.7203484830
  O        0.6666751433     0.0000006917     0.1600630427
  O        0.6666650482    -0.0000019600     0.7147124382
  O        0.8016536354     0.4688473560     0.1896708926
  O        0.7429497380     0.3820669469     0.6743025566
  O        0.5316785100     0.5311535180     0.1896692028
  O        0.5903756590     0.6179344690     0.6742961353
  O       -0.2542894679    -0.2973631275     0.3362558767
  O       -0.1048209008     0.4007635026     0.7891756422
  O        0.1603411661     0.4255886818     0.2790160556
  O        0.0174018854     0.5468975159     0.8563037774
  O        0.9646230769     0.9036346534     0.2367348587
  O        1.1200474589     0.6362809283     0.8239885129
  O        0.5876190486     0.2973660372     0.3362526367
  O        0.4381505840    -0.4007717260     0.7891743094
  O        0.3687193648     0.0963604048     0.2367335735
  O        0.2132865615     0.3637182979     0.8239894083
  O        0.1729831904     0.5744061476     0.2790150967
  O        0.3159329317     0.4531044111     0.8563042130
  O        0.6666602373    -0.0000050943     0.2844567190
  O        0.6666701305     0.0000022773     0.8399740355
  O        0.7501045363     0.3863111380     0.3267631452
  O        0.7879562010     0.4552480478     0.8059254416
  O        0.5832235134     0.6136901863     0.3267683282
  O        0.5453766599     0.5447500035     0.8059253795

K_POINTS gamma
