&CONTROL
  calculation = 'scf'
  prefix = 'Al_sqs0_delith'
  outdir = './tmp_Al_sqs0_delith'
  pseudo_dir = './pseudo'
  tprnfor = .false.
  tstress = .false.
  verbosity = 'low'
  disk_io = 'low'
/

&SYSTEM
  ibrav = 0
  nat = 54
  ntyp = 3
  ecutwfc = 40.0
  ecutrho = 320.0
  occupations = 'smearing'
  smearing = 'mv'
  degauss = 0.02
  nspin = 2
  starting_magnetization(2) = 0.5
  lda_plus_u = .true.
  Hubbard_U(2) = 3.32
/

&ELECTRONS
  conv_thr = 1e-05
  mixing_mode = 'local-TF'
  mixing_beta = 0.1
  electron_maxstep = 500
  diagonalization = 'david'
/

CELL_PARAMETERS angstrom
      8.6250000000     0.0000000000     0.0000000000
     -4.3125000000     7.4694691076     0.0000000000
      0.0000000000     0.0000000000    28.4000000000

ATOMIC_SPECIES
  Al      26.9820 Al.pbe-n-kjpaw_psl.1.0.0.UPF
  Co      58.9330 Co.pbe-spn-kjpaw_psl.0.3.1.UPF
  O       15.9990 O.pbe-n-kjpaw_psl.1.0.0.UPF

ATOMIC_POSITIONS crystal
  Co       0.0502153962     0.0262994880    -0.0000000004
  Co       0.0000000000     0.0000000000     0.5000000000
  Al      -0.0517773011     0.2815560322    -0.0000000082
  Co       0.0000000000     0.3333333333     0.5000000000
  Co       0.9396337342     0.7270329325     0.0000000004
  Co       1.0000000000     0.6666666667     0.5000000000
  Co       0.2831179371    -0.0262994879    -0.0000000004
  Co       0.3333333333    -0.0000000000     0.5000000000
  Co       0.3936995992     0.2729670675     0.0000000004
  Co       0.3333333333     0.3333333333     0.5000000000
  Al       0.3851106345     0.7184439679    -0.0000000082
  Co       0.3333333333     0.6666666667     0.5000000000
  Co       0.6666666667     0.0000000001    -0.0000000060
  Co       0.6666666667    -0.0000000000     0.5000000000
  Co       0.6929661547     0.3835487296    -0.0000000004
  Co       0.6666666667     0.3333333333     0.5000000000
  Co       0.6403671787     0.6164512705    -0.0000000004
  Co       0.6666666667     0.6666666667     0.5000000000
  O       -0.0322085892     0.1215571033     0.0409083082
  O       -0.0000000000    -0.0000000000     0.5563123537
  O        0.0928803680     0.4262137013     0.0592900494
  O       -0.0000000000     0.3333333333     0.5563123537
  O        0.9530629003     0.7136037664     0.0562940601
  O        1.0000000000     0.6666666667     0.5563123537
  O        0.3655419225    -0.1215571033     0.0409083082
  O        0.3333333333     0.0000000000     0.5563123537
  O        0.3802704330     0.2863962336     0.0562940601
  O        0.3333333333     0.3333333333     0.5563123537
  O        0.2404529654     0.5737862987     0.0592900494
  O        0.3333333333     0.6666666667     0.5563123537
  O        0.6666666666    -0.0000000000     0.0586171874
  O        0.6666666667     0.0000000000     0.5563123537
  O        0.7882237699     0.3011247442     0.0409083082
  O        0.6666666667     0.3333333333     0.5563123537
  O        0.5451095634     0.6988752558     0.0409083082
  O        0.6666666667     0.6666666667     0.5563123537
  O       -0.0000000000    -0.0000000000     0.4436876463
  O       -0.0322086239     0.1215570623     0.9590916900
  O       -0.0000000000     0.3333333333     0.4436876463
  O        0.0928803555     0.4262136889     0.9407099703
  O        1.0000000000     0.6666666667     0.4436876463
  O        0.9530629015     0.7136037652     0.9437059401
  O        0.3333333333     0.0000000000     0.4436876463
  O        0.3655419573    -0.1215570623     0.9590916900
  O        0.3333333333     0.3333333333     0.4436876463
  O        0.3802704318     0.2863962348     0.9437059401
  O        0.3333333333     0.6666666667     0.4436876463
  O        0.2404529778     0.5737863111     0.9407099703
  O        0.6666666667     0.0000000000     0.4436876463
  O        0.6666666666    -0.0000000000     0.9413828032
  O        0.6666666667     0.3333333333     0.4436876463
  O        0.7882237289     0.3011247094     0.9590916900
  O        0.6666666667     0.6666666667     0.4436876463
  O        0.5451096044     0.6988752906     0.9590916900

K_POINTS gamma
