&CONTROL
  calculation = 'scf'
  prefix = 'Fe_sqs0_lith'
  outdir = './tmp_Fe_sqs0_lith'
  pseudo_dir = './pseudo'
  tprnfor = .false.
  tstress = .false.
  verbosity = 'low'
  disk_io = 'low'
/

&SYSTEM
  ibrav = 0
  nat = 72
  ntyp = 4
  ecutwfc = 40.0
  ecutrho = 320.0
  occupations = 'smearing'
  smearing = 'mv'
  degauss = 0.02
  nspin = 2
  starting_magnetization(1) = 0.5
  starting_magnetization(2) = 0.5
  lda_plus_u = .true.
  Hubbard_U(1) = 3.32
  Hubbard_U(2) = 5.3
/

&ELECTRONS
  conv_thr = 1e-05
  mixing_mode = 'local-TF'
  mixing_beta = 0.1
  electron_maxstep = 500
  diagonalization = 'david'
/

CELL_PARAMETERS angstrom
      8.6250000000     0.0000000000     0.0000000000
     -4.3125000000     7.4694691076     0.0000000000
      0.0000000000     0.0000000000    28.4000000000

ATOMIC_SPECIES
  Co      58.9330 Co.pbe-spn-kjpaw_psl.0.3.1.UPF
  Fe      55.8450 Fe.pbe-spn-kjpaw_psl.0.2.1.UPF
  Li       6.9410 Li.pbe-s-kjpaw_psl.1.0.0.UPF
  O       15.9990 O.pbe-n-kjpaw_psl.1.0.0.UPF

ATOMIC_POSITIONS crystal
  Li       0.0000000000     0.0000000000     0.2361723779
  Li       0.0000000000     0.0000000000     0.7638276221
  Li       0.0000000000     0.3293811871     0.2108622246
  Li       0.0000000000     0.3293811871     0.7891377754
  Li       1.0000000000     0.6706188129     0.2108622246
  Li       1.0000000000     0.6706188129     0.7891377754
  Li       0.2634196173    -0.0871424446     0.2842395829
  Li       0.2634196174    -0.0871424446     0.7157604171
  Li       0.2634196173     0.3505620620     0.2842395829
  Li       0.2634196173     0.3505620620     0.7157604171
  Li       0.4214126257     0.7107063128     0.2288319753
  Li       0.4214126257     0.7107063128     0.7711680247
  Li       0.7365803827     0.0871424447     0.2842395829
  Li       0.7365803827     0.0871424447     0.7157604171
  Li       0.5785873743     0.2892936871     0.2288319753
  Li       0.5785873743     0.2892936871     0.7711680247
  Li       0.7365803826     0.6494379380     0.2842395829
  Li       0.7365803826     0.6494379380     0.7157604171
  Co       0.0000000000     0.0000000000     0.0000000000
  Co      -0.0000000000    -0.0000000000     0.5000000000
  Co       0.0000000000     0.2560228866     0.0000000000
  Fe       0.0000000001     0.2705935620     0.5000000000
  Co       1.0000000000     0.7439771134     0.0000000000
  Fe       0.9999999999     0.7294064380     0.5000000000
  Co       0.3274521909     0.0018574043     0.0000000000
  Co       0.2891643187     0.0055390172     0.5000000000
  Co       0.3274521909     0.3255947866     0.0000000000
  Co       0.2891643187     0.2836253009     0.5000000000
  Co       0.4276708177     0.7138354089     0.0000000000
  Co       0.4362898507     0.7181449259     0.5000000000
  Co       0.6725478091    -0.0018574043     0.0000000000
  Co       0.7108356813    -0.0055390172     0.5000000000
  Co       0.5723291823     0.2861645911     0.0000000000
  Co       0.5637101493     0.2818550741     0.5000000000
  Co       0.6725478091     0.6744052134     0.0000000000
  Co       0.7108356813     0.7163746991     0.5000000000
  O       -0.0000000000    -0.0000000000     0.1687931703
  O       -0.0000000000    -0.0000000000     0.6693532273
  O        0.0000000000     0.4275362917     0.1430325988
  O        0.0000000000     0.1325687348     0.6960090793
  O        1.0000000000     0.5724637083     0.1430325988
  O        1.0000000000     0.8674312652     0.6960090793
  O        0.1854588487    -0.0749804970     0.2211816775
  O        0.5285386320     0.1365651136     0.7084666201
  O        0.1854588487     0.2604393457     0.2211816775
  O        0.5285386320     0.3919735184     0.7084666201
  O        0.1568427252     0.5784213626     0.2360013039
  O        0.4446069080     0.7223034541     0.6800890303
  O        0.8145411513     0.0749804970     0.2211816775
  O        0.4714613680    -0.1365651137     0.7084666201
  O        0.8431572748     0.4215786374     0.2360013039
  O        0.5553930920     0.2776965461     0.6800890303
  O        0.8145411513     0.7395606544     0.2211816775
  O        0.4714613680     0.6080264816     0.7084666201
  O       -0.0000000000    -0.0000000000     0.3306467727
  O       -0.0000000000    -0.0000000000     0.8312068297
  O        0.0000000000     0.1325687348     0.3039909207
  O        0.0000000000     0.4275362917     0.8569674012
  O        1.0000000000     0.8674312652     0.3039909207
  O        1.0000000000     0.5724637083     0.8569674012
  O        0.5285386320     0.1365651136     0.2915333799
  O        0.1854588487    -0.0749804970     0.7788183225
  O        0.5285386320     0.3919735184     0.2915333799
  O        0.1854588487     0.2604393457     0.7788183225
  O        0.4446069080     0.7223034541     0.3199109697
  O        0.1568427252     0.5784213626     0.7639986961
  O        0.4714613680    -0.1365651137     0.2915333799
  O        0.8145411513     0.0749804970     0.7788183225
  O        0.5553930920     0.2776965460     0.3199109697
  O        0.8431572748     0.4215786374     0.7639986961
  O        0.4714613680     0.6080264816     0.2915333799
  O        0.8145411513     0.7395606544     0.7788183225

K_POINTS gamma
