&CONTROL
  calculation = 'scf'
  prefix = 'Ga_ord_delith'
  outdir = './tmp_Ga_ord_delith'
  pseudo_dir = './pseudo'
  tprnfor = .false.
  tstress = .false.
  verbosity = 'low'
  disk_io = 'low'
/

&SYSTEM
  ibrav = 0
  nat = 54
  ntyp = 3
  ecutwfc = 40.0
  ecutrho = 320.0
  occupations = 'smearing'
  smearing = 'mv'
  degauss = 0.02
  nspin = 2
  starting_magnetization(1) = 0.5
  lda_plus_u = .true.
  Hubbard_U(1) = 3.32
/

&ELECTRONS
  conv_thr = 1e-05
  mixing_mode = 'local-TF'
  mixing_beta = 0.1
  electron_maxstep = 500
  diagonalization = 'david'
/

CELL_PARAMETERS angstrom
      8.6250000000     0.0000000000     0.0000000000
     -4.3125000000     7.4694691076     0.0000000000
      0.0000000000     0.0000000000    28.4000000000

ATOMIC_SPECIES
  Co      58.9330 Co.pbe-spn-kjpaw_psl.0.3.1.UPF
  Ga      69.7230 Ga.pbe-dn-kjpaw_psl.1.0.0.UPF
  O       15.9990 O.pbe-n-kjpaw_psl.1.0.0.UPF

ATOMIC_POSITIONS crystal
  Ga      -0.0000000000    -0.0000000000    -0.0000000000
  Ga      -0.0000000000    -0.0000000000     0.5000000000
  Co       0.0000000000     0.3592843450     0.0000000000
  Co       0.0000000000     0.3592843450     0.5000000000
  Co       1.0000000000     0.6407156550     0.0000000000
  Co       1.0000000000     0.6407156550     0.5000000000
  Co       0.3592843450     0.0000000000     0.0000000000
  Co       0.3592843450     0.0000000000     0.5000000000
  Co       0.3592843450     0.3592843450    -0.0000000000
  Co       0.3592843450     0.3592843450     0.5000000000
  Co       0.3333333333     0.6666666667    -0.0000000000
  Co       0.3333333333     0.6666666667     0.5000000000
  Co       0.6407156550     0.0000000000     0.0000000000
  Co       0.6407156550     0.0000000000     0.5000000000
  Co       0.6666666667     0.3333333333    -0.0000000000
  Co       0.6666666667     0.3333333333     0.5000000000
  Co       0.6407156550     0.6407156550     0.0000000000
  Co       0.6407156550     0.6407156550     0.5000000000
  O        0.0000000000    -0.0000000000     0.1257058731
  O        0.0000000000    -0.0000000000     0.6257058731
  O        0.0000000000     0.3287125366     0.1269879590
  O        0.0000000000     0.3287125366     0.6269879590
  O        1.0000000000     0.6712874634     0.1269879590
  O        1.0000000000     0.6712874634     0.6269879590
  O        0.3287125366    -0.0000000000     0.1269879590
  O        0.3287125366    -0.0000000000     0.6269879590
  O        0.3287125366     0.3287125366     0.1269879590
  O        0.3287125366     0.3287125366     0.6269879590
  O        0.3333333333     0.6666666667     0.1289965555
  O        0.3333333333     0.6666666667     0.6289965555
  O        0.6712874634    -0.0000000000     0.1269879590
  O        0.6712874634    -0.0000000000     0.6269879590
  O        0.6666666667     0.3333333333     0.1289965555
  O        0.6666666667     0.3333333333     0.6289965555
  O        0.6712874634     0.6712874634     0.1269879590
  O        0.6712874634     0.6712874634     0.6269879590
  O       -0.0000000000    -0.0000000000     0.3742941269
  O       -0.0000000000    -0.0000000000     0.8742941269
  O        0.0000000000     0.3287125366     0.3730120410
  O        0.0000000000     0.3287125366     0.8730120410
  O        1.0000000000     0.6712874634     0.3730120410
  O        1.0000000000     0.6712874634     0.8730120410
  O        0.3287125366    -0.0000000000     0.3730120410
  O        0.3287125366    -0.0000000000     0.8730120410
  O        0.3287125366     0.3287125366     0.3730120410
  O        0.3287125366     0.3287125366     0.8730120410
  O        0.3333333333     0.6666666667     0.3710034445
  O        0.3333333333     0.6666666667     0.8710034445
  O        0.6712874634    -0.0000000000     0.3730120410
  O        0.6712874634    -0.0000000000     0.8730120410
  O        0.6666666667     0.3333333333     0.3710034445
  O        0.6666666667     0.3333333333     0.8710034445
  O        0.6712874634     0.6712874634     0.3730120410
  O        0.6712874634     0.6712874634     0.8730120410

K_POINTS gamma
