&CONTROL
  calculation = 'scf'
  prefix = 'Ga_ord_lith'
  outdir = './tmp_Ga_ord_lith'
  pseudo_dir = './pseudo'
  tprnfor = .false.
  tstress = .false.
  verbosity = 'low'
  disk_io = 'low'
/

&SYSTEM
  ibrav = 0
  nat = 72
  ntyp = 4
  ecutwfc = 40.0
  ecutrho = 320.0
  occupations = 'smearing'
  smearing = 'mv'
  degauss = 0.02
  nspin = 2
  starting_magnetization(1) = 0.5
  lda_plus_u = .true.
  Hubbard_U(1) = 3.32
/

&ELECTRONS
  conv_thr = 1e-05
  mixing_mode = 'local-TF'
  mixing_beta = 0.1
  electron_maxstep = 500
  diagonalization = 'david'
/

CELL_PARAMETERS angstrom
      8.6250000000     0.0000000000     0.0000000000
     -4.3125000000     7.4694691076     0.0000000000
      0.0000000000     0.0000000000    28.4000000000

ATOMIC_SPECIES
  Co      58.9330 Co.pbe-spn-kjpaw_psl.0.3.1.UPF
  Ga      69.7230 Ga.pbe-dn-kjpaw_psl.1.0.0.UPF
  Li       6.9410 Li.pbe-s-kjpaw_psl.1.0.0.UPF
  O       15.9990 O.pbe-n-kjpaw_psl.1.0.0.UPF

ATOMIC_POSITIONS crystal
  Li      -0.0000000000     0.0000000000     0.2500000000
  Li      -0.0000000000     0.0000000000     0.7500000000
  Li      -0.0000000000     0.3352801687     0.2500000000
  Li      -0.0000000000     0.3352801687     0.7500000000
  Li       1.0000000000     0.6647198313     0.2500000000
  Li       1.0000000000     0.6647198313     0.7500000000
  Li       0.3352801687     0.0000000000     0.2500000000
  Li       0.3352801687     0.0000000000     0.7500000000
  Li       0.3352801687     0.3352801687     0.2500000000
  Li       0.3352801687     0.3352801687     0.7500000000
  Li       0.3333333333     0.6666666667     0.2500000000
  Li       0.3333333333     0.6666666667     0.7500000000
  Li       0.6647198313     0.0000000000     0.2500000000
  Li       0.6647198313     0.0000000000     0.7500000000
  Li       0.6666666667     0.3333333333     0.2500000000
  Li       0.6666666667     0.3333333333     0.7500000000
  Li       0.6647198313     0.6647198313     0.2500000000
  Li       0.6647198313     0.6647198313     0.7500000000
  Ga      -0.0000000000    -0.0000000000    -0.0000000000
  Ga      -0.0000000000    -0.0000000000     0.5000000000
  Co       0.0000000000     0.3624345111    -0.0000000000
  Co       0.0000000000     0.3624345111     0.5000000000
  Co       1.0000000000     0.6375654889    -0.0000000000
  Co       1.0000000000     0.6375654889     0.5000000000
  Co       0.3624345111    -0.0000000000    -0.0000000000
  Co       0.3624345111    -0.0000000000     0.5000000000
  Co       0.3624345111     0.3624345111    -0.0000000000
  Co       0.3624345111     0.3624345111     0.5000000000
  Co       0.3333333333     0.6666666667    -0.0000000000
  Co       0.3333333333     0.6666666667     0.5000000000
  Co       0.6375654889    -0.0000000000    -0.0000000000
  Co       0.6375654889    -0.0000000000     0.5000000000
  Co       0.6666666667     0.3333333333    -0.0000000000
  Co       0.6666666667     0.3333333333     0.5000000000
  Co       0.6375654889     0.6375654889    -0.0000000000
  Co       0.6375654889     0.6375654889     0.5000000000
  O        0.0000000000     0.0000000000     0.1844894523
  O        0.0000000000     0.0000000000     0.6844894523
  O        0.0000000000     0.3238998101     0.1865089646
  O        0.0000000000     0.3238998101     0.6865089646
  O        1.0000000000     0.6761001899     0.1865089646
  O        1.0000000000     0.6761001899     0.6865089646
  O        0.3238998101    -0.0000000000     0.1865089646
  O        0.3238998101    -0.0000000000     0.6865089646
  O        0.3238998101     0.3238998101     0.1865089646
  O        0.3238998101     0.3238998101     0.6865089646
  O        0.3333333333     0.6666666667     0.1871597652
  O        0.3333333333     0.6666666667     0.6871597652
  O        0.6761001899    -0.0000000000     0.1865089646
  O        0.6761001899    -0.0000000000     0.6865089646
  O        0.6666666667     0.3333333333     0.1871597652
  O        0.6666666667     0.3333333333     0.6871597652
  O        0.6761001899     0.6761001899     0.1865089646
  O        0.6761001899     0.6761001899     0.6865089646
  O        0.0000000000     0.0000000000     0.3155105477
  O        0.0000000000     0.0000000000     0.8155105477
  O        0.0000000000     0.3238998101     0.3134910354
  O        0.0000000000     0.3238998101     0.8134910354
  O        1.0000000000     0.6761001899     0.3134910354
  O        1.0000000000     0.6761001899     0.8134910354
  O        0.3238998101    -0.0000000000     0.3134910354
  O        0.3238998101    -0.0000000000     0.8134910354
  O        0.3238998101     0.3238998101     0.3134910354
  O        0.3238998101     0.3238998101     0.8134910354
  O        0.3333333333     0.6666666667     0.3128402348
  O        0.3333333333     0.6666666667     0.8128402348
  O        0.6761001899    -0.0000000000     0.3134910354
  O        0.6761001899    -0.0000000000     0.8134910354
  O        0.6666666667     0.3333333333     0.3128402348
  O        0.6666666667     0.3333333333     0.8128402348
  O        0.6761001899     0.6761001899     0.3134910354
  O        0.6761001899     0.6761001899     0.8134910354

K_POINTS gamma
