&CONTROL
  calculation = 'scf'
  prefix = 'Ga_sqs1_delith'
  outdir = './tmp_Ga_sqs1_delith'
  pseudo_dir = './pseudo'
  tprnfor = .false.
  tstress = .false.
  verbosity = 'low'
  disk_io = 'low'
/

&SYSTEM
  ibrav = 0
  nat = 54
  ntyp = 3
  ecutwfc = 40.0
  ecutrho = 320.0
  occupations = 'smearing'
  smearing = 'mv'
  degauss = 0.02
  nspin = 2
  starting_magnetization(1) = 0.5
  lda_plus_u = .true.
  Hubbard_U(1) = 3.32
/

&ELECTRONS
  conv_thr = 1e-05
  mixing_mode = 'local-TF'
  mixing_beta = 0.1
  electron_maxstep = 500
  diagonalization = 'david'
/

CELL_PARAMETERS angstrom
      8.6250000000     0.0000000000     0.0000000000
     -4.3125000000     7.4694691076     0.0000000000
      0.0000000000     0.0000000000    28.4000000000

ATOMIC_SPECIES
  Co      58.9330 Co.pbe-spn-kjpaw_psl.0.3.1.UPF
  Ga      69.7230 Ga.pbe-dn-kjpaw_psl.1.0.0.UPF
  O       15.9990 O.pbe-n-kjpaw_psl.1.0.0.UPF

ATOMIC_POSITIONS crystal
  Co       0.0150499272     0.0154468319    -0.0009122917
  Co       0.0865864476     0.1536103585     0.4998983503
  Ga       0.0359632271     0.3647890478    -0.0508452194
  Co       0.0806604676     0.5001285151     0.4999697083
  Co       1.0757648739     0.6674655623    -0.0132467043
  Co       1.0636059236     0.8193989458     0.5000116680
  Co       0.3296560726     0.0145407286     0.0289805294
  Co       0.4149516315     0.1396233834     0.5001079176
  Co       0.3367734641     0.3204077013     0.0284305638
  Co       0.4213108470     0.4862710057     0.4998623770
  Co       0.3318466209     0.6645877890     0.0778012068
  Co       0.3976657762     0.8079707289     0.5002763174
  Ga       0.6299797109    -0.0304831607    -0.0508598537
  Co       0.7477313768     0.1442463649     0.4999908801
  Co       0.6521258541     0.3184150287    -0.0003033661
  Co       0.7288933917     0.4840010648     0.4998062007
  Co       0.5897904175     0.6659155554    -0.0142911183
  Co       0.7557915867     0.8168896138     0.4999301485
  O        0.2104770817    -0.2548439750     0.0452663357
  O       -0.0382138355    -0.0827993678     0.5395982938
  O       -0.1803099184     0.2303922548     0.1469387905
  O       -0.0549524322     0.2534324991     0.5383787948
  O        0.8963737485     0.4182000498    -0.0076685185
  O        0.9674867317     0.5861960853     0.5387727599
  O        0.4966977851     0.2499253825     0.0515469447
  O        0.3054125662    -0.0712394360     0.5384042285
  O        0.1701274764     0.0861919085     0.0513204222
  O        0.2831876823     0.2491275601     0.5388092500
  O        0.3349822615     0.6628671892     0.1341788354
  O        0.2905771503     0.6037750656     0.5385836344
  O        0.8449604186     0.1015658653     0.1472119887
  O        0.6358744206    -0.0610360845     0.5383487886
  O        0.4539731662     0.5886958864     0.0438615672
  O        0.6089888360     0.2409977848     0.5386218782
  O        0.7704699596     0.9146291369    -0.0085299196
  O        0.6256081586     0.5813029596     0.5395756639
  O       -0.0372236499    -0.0834974714     0.4602421223
  O        0.1039191772    -0.1202258918     0.9740926506
  O       -0.0451156548     0.2556165887     0.4619070348
  O       -0.0701799835     0.2063457534     0.8989845070
  O        0.9736338819     0.5905187463     0.4611296731
  O        1.1702524922     0.6091856896     0.9392058283
  O        0.3135977339    -0.0600851661     0.4614622369
  O        0.5318720217     0.0665094140     0.9886952120
  O        0.2881318210     0.2533805704     0.4613147095
  O        0.1369950406     0.2676024084     0.9873567204
  O        0.2957015904     0.6105955174     0.4613333954
  O        0.3376748940     0.6619865874     0.7914997432
  O        0.6409187725    -0.0538321161     0.4615571615
  O        0.7348862642     0.1300278414     0.8992338443
  O        0.6227350879     0.2523828863     0.4618334921
  O        0.5654699752     0.4545440508     0.9735749448
  O        0.6264536903     0.5830233976     0.4602733142
  O        0.4944079710     0.7253153642     0.9384763567

K_POINTS gamma
