&CONTROL
  calculation = 'scf'
  prefix = 'Ga_sqs0_lith'
  outdir = './tmp_Ga_sqs0_lith'
  pseudo_dir = './pseudo'
  tprnfor = .false.
  tstress = .false.
  verbosity = 'low'
  disk_io = 'low'
/

&SYSTEM
  ibrav = 0
  nat = 72
  ntyp = 4
  ecutwfc = 40.0
  ecutrho = 320.0
  occupations = 'smearing'
  smearing = 'mv'
  degauss = 0.02
  nspin = 2
  starting_magnetization(1) = 0.5
  lda_plus_u = .true.
  Hubbard_U(1) = 3.32
/

&ELECTRONS
  conv_thr = 1e-05
  mixing_mode = 'local-TF'
  mixing_beta = 0.1
  electron_maxstep = 500
  diagonalization = 'david'
/

CELL_PARAMETERS angstrom
      8.6250000000     0.0000000000     0.0000000000
     -4.3125000000     7.4694691076     0.0000000000
      0.0000000000     0.0000000000    28.4000000000

ATOMIC_SPECIES
  Co      58.9330 Co.pbe-spn-kjpaw_psl.0.3.1.UPF
  Ga      69.7230 Ga.pbe-dn-kjpaw_psl.1.0.0.UPF
  Li       6.9410 Li.pbe-s-kjpaw_psl.1.0.0.UPF
  O       15.9990 O.pbe-n-kjpaw_psl.1.0.0.UPF

ATOMIC_POSITIONS crystal
  Li       0.0745666920     0.1736813162     0.2286734308
  Li       0.0637391029     0.1554378013     0.7664286715
  Li      -0.0218083722     0.4264178983     0.2568012827
  Li      -0.0199567857     0.4145409451     0.7397200349
  Li       0.9495066520     0.7098306697     0.2812781571
  Li       0.9921511647     0.7189017401     0.7165188768
  Li       0.2951432393     0.1102167671     0.3488208475
  Li       0.3112252324     0.1170852445     0.6552191900
  Li       0.3333333404     0.3333335102     0.2895044920
  Li       0.3333333527     0.3333334416     0.7123970334
  Li       0.3715234304     0.5564499284     0.3488208652
  Li       0.3554414387     0.5495814376     0.6552191839
  Li       0.7171599972    -0.0431640294     0.2812781523
  Li       0.6745155104    -0.0522350953     0.7165188815
  Li       0.6884750339     0.2402487601     0.2568012835
  Li       0.6866234694     0.2521257226     0.7397200338
  Li       0.5920999698     0.4929853193     0.2286734302
  Li       0.6029275582     0.5112288662     0.7664286673
  Co       0.1185650464     0.0454882747    -0.0002356379
  Co       0.0266633710     0.1237343585     0.5050868985
  Co       0.1183817532     0.4061545553    -0.0001230162
  Co       0.1008024217     0.4158815255     0.5030119252
  Co       1.0681100901     0.7005134562    -0.0000215752
  Co       0.8668072066     0.4799722683     0.5038604338
  Co       0.3333562321    -0.0293262773     0.0005129713
  Ga       0.2458408907     0.0051939256     0.5017182592
  Co       0.3333333332     0.3333332754     0.0002176349
  Co       0.3333333334     0.3333333337     0.5027060145
  Co       0.3333104347     0.6959930094     0.0005129715
  Ga       0.4208257763     0.6614727419     0.5017182593
  Co       0.5985565765    -0.0338467711    -0.0000215751
  Co       0.7998594603     0.1866943989     0.5038604339
  Co       0.5482850135     0.2605121485    -0.0001230163
  Co       0.5658642454     0.2507851418     0.5030119252
  Co       0.5481015201     0.6211783284    -0.0002356380
  Co       0.6400032958     0.5429323086     0.5050868985
  O       -0.0635922218     0.0266685064     0.1631467579
  O        0.1715385416    -0.0006112440     0.7266358035
  O       -0.0956435739     0.1394284628     0.1450276839
  O        0.3145200791     0.5961140329     0.7250671788
  O        0.7928196300     0.4908632877     0.2575925876
  O        1.1703168692     0.7343641574     0.6521803524
  O        0.3781456289    -0.0838578647     0.1868385800
  O        0.2255201757    -0.1367729022     0.6233656257
  O        0.3333333381     0.3333332590     0.2252892730
  O        0.3333333367     0.3333333360     0.6492034560
  O        0.2885210384     0.7505245302     0.1868385822
  O        0.4411464983     0.8034395801     0.6233656240
  O        0.8738470419     0.1758033678     0.2575925890
  O        0.4963497994    -0.0676974929     0.6521803545
  O        0.7623102354     0.5272382016     0.1450276844
  O        0.3521466031     0.0705526373     0.7250671866
  O        0.7302588647     0.6399981429     0.1631467599
  O        0.4951281610     0.6672778953     0.7266358000
  O        0.1557168057    -0.0129103133     0.2727459516
  O       -0.0680612801     0.0284579521     0.8336267855
  O        0.3368571386     0.6191889288     0.2794902517
  O       -0.0886664439     0.1469553881     0.8528605868
  O        1.1170725265     0.7239177832     0.3415741940
  O        0.8124483390     0.5030171232     0.7392107111
  O        0.1634330831    -0.1559472366     0.3733253563
  O        0.3710015683    -0.0838686952     0.8156306820
  O        0.3333333308     0.3333333369     0.3528792019
  O        0.3333332781     0.3333332610     0.7766232151
  O        0.5032335935     0.8226139255     0.3733253606
  O        0.2956650983     0.7505353631     0.8156306806
  O        0.5495941398    -0.0572511185     0.3415741924
  O        0.8542183250     0.1636495414     0.7392107117
  O        0.3298095280     0.0474776988     0.2794902376
  O        0.7553330989     0.5197112746     0.8528605857
  O        0.5109498888     0.6795769600     0.2727459545
  O        0.7347279083     0.6382086874     0.8336267800

K_POINTS gamma
