&CONTROL
  calculation = 'scf'
  prefix = 'Ga_sqs1_lith'
  outdir = './tmp_Ga_sqs1_lith'
  pseudo_dir = './pseudo'
  tprnfor = .false.
  tstress = .false.
  verbosity = 'low'
  disk_io = 'low'
/

&SYSTEM
  ibrav = 0
  nat = 72
  ntyp = 4
  ecutwfc = 40.0
  ecutrho = 320.0
  occupations = 'smearing'
  smearing = 'mv'
  degauss = 0.02
  nspin = 2
  starting_magnetization(1) = 0.5
  lda_plus_u = .true.
  Hubbard_U(1) = 3.32
/

&ELECTRONS
  conv_thr = 1e-05
  mixing_mode = 'local-TF'
  mixing_beta = 0.1
  electron_maxstep = 500
  diagonalization = 'david'
/

CELL_PARAMETERS angstrom
      8.6250000000     0.0000000000     0.0000000000
     -4.3125000000     7.4694691076     0.0000000000
      0.0000000000     0.0000000000    28.4000000000

ATOMIC_SPECIES
  Co      58.9330 Co.pbe-spn-kjpaw_psl.0.3.1.UPF
  Ga      69.7230 Ga.pbe-dn-kjpaw_psl.1.0.0.UPF
  Li       6.9410 Li.pbe-s-kjpaw_psl.1.0.0.UPF
  O       15.9990 O.pbe-n-kjpaw_psl.1.0.0.UPF

ATOMIC_POSITIONS crystal
  Li      -0.1533698404    -0.1370025434     0.1903050924
  Li       0.1221669555    -0.0270079948     0.8203625669
  Li       0.0038535869     0.3815810204     0.1891522856
  Li       0.0359207189     0.2455178390     0.8154944922
  Li       0.7990130742     0.6077371082     0.2306255177
  Li       0.8648931994     0.5482597147     0.7701705246
  Li       0.1946342265    -0.2026940630     0.1779845261
  Li       0.2321630190    -0.1943256803     0.7470536243
  Li       0.4955701940     0.4785964277     0.2086479213
  Li       0.4653442144     0.5713996003     0.7432275305
  Li       0.4849929827     0.7806565226     0.2335459246
  Li       0.2910814696     0.6440366796     0.8200820731
  Li       0.6338754086    -0.0225834179     0.1021327837
  Li       0.6907911001     0.0555132700     0.8280049998
  Li       0.5932618569     0.1816642244     0.1743501603
  Li       0.5339564793     0.3500900293     0.8011924378
  Li       0.8091392362     0.5251681727     0.1515750347
  Li       0.8279731330     0.7886066132     0.7794466552
  Co       0.0450867806    -0.0793692896     0.0218162409
  Co      -0.0584177235     0.1343239383     0.5005740587
  Ga      -0.0285315255     0.4028932215     0.0508448615
  Co       0.0226059168     0.4411129058     0.4995654178
  Co       0.8330790338     0.6129503675     0.0148156998
  Co       1.1074009596     0.7463889791     0.4984131020
  Co       0.3418294759     0.1240687614     0.0155052680
  Co       0.4118831364    -0.0312875668     0.4979782422
  Co       0.1851580573     0.2625364272     0.0234870568
  Co       0.2486470145     0.3702252583     0.5015907920
  Co       0.3667110927     0.5772119785     0.0417564133
  Co       0.3301914584     0.6695316666     0.5004344388
  Ga       0.3000161575    -0.1547356045     0.0440763390
  Co       0.6378777065    -0.1021479261     0.5011589516
  Co       0.5144638817     0.4310031204     0.0164498229
  Co       0.7190681381     0.2044440035     0.4995262190
  Co       0.6783072516     0.7555012698     0.0276639937
  Co       0.5529596807     0.5928979438     0.5048568720
  O       -0.1430792411     0.1178671083     0.1806660159
  O        0.0433251893    -0.2215018586     0.7811896181
  O       -0.0713355325     0.3785956586     0.1215291311
  O       -0.2350362961     0.1111893294     0.7008863995
  O        1.2185243340     0.5653356038     0.2209157170
  O        1.3732912563     1.0310776315     0.6967564764
  O        0.4285382687    -0.0720702573     0.1426602475
  O        0.4349399037     0.1053197228     0.7356605591
  O        0.2396190639     0.4314114236     0.2028616384
  O        0.1570873744     0.2012782767     0.6920653200
  O        0.5151268119     0.8298097292     0.0495136113
  O        0.3142183932     0.6537616075     0.7565357154
  O        0.8612795655     0.0549679913     0.1381216847
  O        0.8366442249     0.2758406810     0.6985730510
  O        0.7479641868     0.2625003700     0.1076024839
  O        0.6538399942     0.5577414557     0.7669128599
  O        0.4368343872     0.9431628250     0.1924827884
  O        0.3037534738     0.3392071937     0.6863262619
  O       -0.0352032334    -0.2629915976     0.1825796588
  O       -0.1580483937     0.0280092913     0.7845118804
  O       -0.1435933316     0.2205209348     0.2786286409
  O       -0.1186065190    -0.0083226102     0.8323987123
  O        1.3940416055     0.8831934877     0.2909853721
  O        1.2625526070     0.4021687864     0.8431430694
  O        0.3429975581    -0.0086089342     0.2817833724
  O        0.3844342440     0.0287482755     0.8443800817
  O        0.4192635169     0.3840805844     0.3183479882
  O        0.2760889101     0.2786775826     0.8161191990
  O        0.6528944675     0.7173992820     0.2283743423
  O        0.1968332202     0.6176544791     1.0717246238
  O        0.9884374332     0.2012353467     0.2833308217
  O        0.8616688548     0.3194221709     0.8463096427
  O        0.6491657814     0.3921395512     0.1993801916
  O        0.7644040315     0.3096389074     0.8079578130
  O        0.5783297961     0.4904053589     0.3274626755
  O        0.4352065857     0.9083716332     0.8474543937

K_POINTS gamma
