&CONTROL
  calculation = 'scf'
  prefix = 'Ga_sqs0_delith'
  outdir = './tmp_Ga_sqs0_delith'
  pseudo_dir = './pseudo'
  tprnfor = .false.
  tstress = .false.
  verbosity = 'low'
  disk_io = 'low'
/

&SYSTEM
  ibrav = 0
  nat = 54
  ntyp = 3
  ecutwfc = 40.0
  ecutrho = 320.0
  occupations = 'smearing'
  smearing = 'mv'
  degauss = 0.02
  nspin = 2
  starting_magnetization(1) = 0.5
  lda_plus_u = .true.
  Hubbard_U(1) = 3.32
/

&ELECTRONS
  conv_thr = 1e-05
  mixing_mode = 'local-TF'
  mixing_beta = 0.1
  electron_maxstep = 500
  diagonalization = 'david'
/

CELL_PARAMETERS angstrom
      8.6250000000     0.0000000000     0.0000000000
     -4.3125000000     7.4694691076     0.0000000000
      0.0000000000     0.0000000000    28.4000000000

ATOMIC_SPECIES
  Co      58.9330 Co.pbe-spn-kjpaw_psl.0.3.1.UPF
  Ga      69.7230 Ga.pbe-dn-kjpaw_psl.1.0.0.UPF
  O       15.9990 O.pbe-n-kjpaw_psl.1.0.0.UPF

ATOMIC_POSITIONS crystal
  Co      -0.0816012602    -0.1622349473     0.0000124397
  Co      -0.0644331465     0.0070270765     0.4992158818
  Co      -0.0833610395     0.1681533927    -0.0000093317
  Co       0.0404390920     0.3210013686     0.4885453471
  Co       0.9060499031     0.5094573039     0.0000030788
  Co       1.0169612752     0.6389155014     0.5021941666
  Co       0.2539251198    -0.1346032314    -0.0000046999
  Ga       0.3257020137     0.0636650987     0.4813366013
  Co       0.2504197610     0.1682958585     0.0000066030
  Co       0.3551669620     0.3531053033     0.4286912495
  Co       0.2604351171     0.5215491097    -0.0000025537
  Ga       0.3764817559     0.6325645491     0.4913071141
  Co       0.6129949321    -0.1344687019    -0.0000021356
  Co       0.6603672928     0.0281011127     0.5008032516
  Co       0.5988904876     0.1976396316    -0.0000032602
  Co       0.6576452167     0.3584255238     0.4859091291
  Co       0.6029972722     0.5086021818     0.0000007904
  Co       0.7094083289     0.6529474802     0.5073698405
  O        0.0412645229     0.0814456770     0.0385347540
  O       -0.0476702503    -0.1757345164     0.5218957405
  O        0.0544439967     0.4159519714     0.0382380962
  O        0.1612920751     0.5444300895     0.5246104219
  O        1.0320587884     0.7482297495     0.0387923871
  O        0.7780246426     0.4766315808     0.5369838585
  O        0.3509129196     0.0662340340     0.0391568588
  O        0.3141441644    -0.2509402269     0.6145796400
  O        0.3611657990     0.4149067680     0.0381804691
  O        0.3332375250     0.3454413318     0.6693732559
  O        0.3640770651     0.7272841268     0.0379580329
  O        0.3610032906     0.9094662175     0.6125163141
  O        0.7150687397     0.0659137379     0.0390971479
  O        0.8967804350     0.1695516952     0.5371219532
  O        0.7048562315     0.4093804020     0.0399467449
  O        0.5220042032     0.1374841483     0.5206235064
  O        0.7157024030     0.7490270929     0.0385271678
  O        0.6075490248     0.7988377047     0.5196164090
  O        0.1767476189     0.1558947944     0.4869034724
  O        0.0411821345     0.0816943651     0.9614650832
  O        0.2186887391     0.4544772142     0.4417208832
  O        0.0544680669     0.4161654457     0.9617543351
  O        0.8107095277     0.5509449765     0.4532609627
  O        1.0321903918     0.7484167396     0.9612196296
  O        0.2270331424    -0.1724450009     0.4618476816
  O        0.3508707808     0.0663146168     0.9608426963
  O        0.3511388401     0.3559777790     0.3725637708
  O        0.3611560160     0.4149682710     0.9618186514
  O        0.4080336933     0.8370524060     0.4573154598
  O        0.3641896545     0.7273813046     0.9620400183
  O        0.8427261784     0.0934546282     0.4529584348
  O        0.7150275977     0.0658995306     0.9608940837
  O        0.4810035413     0.2337678491     0.4368534340
  O        0.7048801601     0.4093998297     0.9600534621
  O        0.4798148177     0.4799543151     0.4938822197
  O        0.7157344384     0.7489957400     0.9614794512

K_POINTS gamma
