&CONTROL
  calculation = 'scf'
  prefix = 'Mg_ord_lith'
  outdir = './tmp_Mg_ord_lith'
  pseudo_dir = './pseudo'
  tprnfor = .false.
  tstress = .false.
  verbosity = 'low'
  disk_io = 'low'
/

&SYSTEM
  ibrav = 0
  nat = 72
  ntyp = 4
  ecutwfc = 40.0
  ecutrho = 320.0
  occupations = 'smearing'
  smearing = 'mv'
  degauss = 0.02
  nspin = 2
  starting_magnetization(1) = 0.5
  lda_plus_u = .true.
  Hubbard_U(1) = 3.32
/

&ELECTRONS
  conv_thr = 1e-05
  mixing_mode = 'local-TF'
  mixing_beta = 0.1
  electron_maxstep = 500
  diagonalization = 'david'
/

CELL_PARAMETERS angstrom
      8.6250000000     0.0000000000     0.0000000000
     -4.3125000000     7.4694691076     0.0000000000
      0.0000000000     0.0000000000    28.4000000000

ATOMIC_SPECIES
  Co      58.9330 Co.pbe-spn-kjpaw_psl.0.3.1.UPF
  Li       6.9410 Li.pbe-s-kjpaw_psl.1.0.0.UPF
  Mg      24.3050 Mg.pbe-spnl-kjpaw_psl.1.0.0.UPF
  O       15.9990 O.pbe-n-kjpaw_psl.1.0.0.UPF

ATOMIC_POSITIONS crystal
  Li      -0.0000000000    -0.0000000000     0.2500000000
  Li      -0.0000000000    -0.0000000000     0.7500000000
  Li       0.0000000000     0.3363371108     0.2500000000
  Li      -0.0000000000     0.3363371108     0.7500000000
  Li       1.0000000000     0.6636628892     0.2500000000
  Li       1.0000000000     0.6636628892     0.7500000000
  Li       0.3363371108    -0.0000000000     0.2500000000
  Li       0.3363371108    -0.0000000000     0.7500000000
  Li       0.3363371108     0.3363371108     0.2500000000
  Li       0.3363371108     0.3363371108     0.7500000000
  Li       0.3333333333     0.6666666667     0.2500000000
  Li       0.3333333333     0.6666666667     0.7500000000
  Li       0.6636628892    -0.0000000000     0.2500000000
  Li       0.6636628892    -0.0000000000     0.7500000000
  Li       0.6666666667     0.3333333333     0.2500000000
  Li       0.6666666667     0.3333333333     0.7500000000
  Li       0.6636628892     0.6636628892     0.2500000000
  Li       0.6636628892     0.6636628892     0.7500000000
  Mg       0.0000000000    -0.0000000000    -0.0000000000
  Mg       0.0000000000    -0.0000000000     0.5000000000
  Co      -0.0000000000     0.3686575802    -0.0000000000
  Co      -0.0000000000     0.3686575802     0.5000000000
  Co       1.0000000000     0.6313424198    -0.0000000000
  Co       1.0000000000     0.6313424198     0.5000000000
  Co       0.3686575802    -0.0000000000     0.0000000000
  Co       0.3686575802    -0.0000000000     0.5000000000
  Co       0.3686575802     0.3686575802    -0.0000000000
  Co       0.3686575802     0.3686575802     0.5000000000
  Co       0.3333333333     0.6666666667    -0.0000000000
  Co       0.3333333333     0.6666666667     0.5000000000
  Co       0.6313424198     0.0000000000    -0.0000000000
  Co       0.6313424198     0.0000000000     0.5000000000
  Co       0.6666666667     0.3333333333    -0.0000000000
  Co       0.6666666667     0.3333333333     0.5000000000
  Co       0.6313424198     0.6313424198    -0.0000000000
  Co       0.6313424198     0.6313424198     0.5000000000
  O       -0.0000000000     0.0000000000     0.1842269976
  O        0.0000000000     0.0000000000     0.6842269976
  O        0.0000000000     0.3212823109     0.1867433860
  O        0.0000000000     0.3212823109     0.6867433860
  O        1.0000000000     0.6787176891     0.1867433860
  O        1.0000000000     0.6787176891     0.6867433860
  O        0.3212823109    -0.0000000000     0.1867433860
  O        0.3212823109     0.0000000000     0.6867433860
  O        0.3212823109     0.3212823109     0.1867433860
  O        0.3212823109     0.3212823109     0.6867433860
  O        0.3333333333     0.6666666667     0.1864410238
  O        0.3333333333     0.6666666667     0.6864410238
  O        0.6787176891     0.0000000000     0.1867433860
  O        0.6787176891     0.0000000000     0.6867433860
  O        0.6666666667     0.3333333333     0.1864410238
  O        0.6666666667     0.3333333333     0.6864410238
  O        0.6787176891     0.6787176891     0.1867433860
  O        0.6787176891     0.6787176891     0.6867433860
  O       -0.0000000000     0.0000000000     0.3157730024
  O        0.0000000000     0.0000000000     0.8157730024
  O        0.0000000000     0.3212823109     0.3132566140
  O        0.0000000000     0.3212823109     0.8132566140
  O        1.0000000000     0.6787176891     0.3132566140
  O        1.0000000000     0.6787176891     0.8132566140
  O        0.3212823109     0.0000000000     0.3132566140
  O        0.3212823109     0.0000000000     0.8132566140
  O        0.3212823109     0.3212823109     0.3132566140
  O        0.3212823109     0.3212823109     0.8132566140
  O        0.3333333333     0.6666666667     0.3135589762
  O        0.3333333333     0.6666666667     0.8135589762
  O        0.6787176891     0.0000000000     0.3132566140
  O        0.6787176891     0.0000000000     0.8132566140
  O        0.6666666667     0.3333333333     0.3135589762
  O        0.6666666667     0.3333333333     0.8135589762
  O        0.6787176891     0.6787176891     0.3132566140
  O        0.6787176891     0.6787176891     0.8132566140

K_POINTS gamma
