&CONTROL
  calculation = 'scf'
  prefix = 'Mg_ord_delith'
  outdir = './tmp_Mg_ord_delith'
  pseudo_dir = './pseudo'
  tprnfor = .false.
  tstress = .false.
  verbosity = 'low'
  disk_io = 'low'
/

&SYSTEM
  ibrav = 0
  nat = 54
  ntyp = 3
  ecutwfc = 40.0
  ecutrho = 320.0
  occupations = 'smearing'
  smearing = 'mv'
  degauss = 0.02
  nspin = 2
  starting_magnetization(1) = 0.5
  lda_plus_u = .true.
  Hubbard_U(1) = 3.32
/

&ELECTRONS
  conv_thr = 1e-05
  mixing_mode = 'local-TF'
  mixing_beta = 0.1
  electron_maxstep = 500
  diagonalization = 'david'
/

CELL_PARAMETERS angstrom
      8.6250000000     0.0000000000     0.0000000000
     -4.3125000000     7.4694691076     0.0000000000
      0.0000000000     0.0000000000    28.4000000000

ATOMIC_SPECIES
  Co      58.9330 Co.pbe-spn-kjpaw_psl.0.3.1.UPF
  Mg      24.3050 Mg.pbe-spnl-kjpaw_psl.1.0.0.UPF
  O       15.9990 O.pbe-n-kjpaw_psl.1.0.0.UPF

ATOMIC_POSITIONS crystal
  Mg      -0.0000000000     0.0000000000    -0.0002320407
  Mg       0.0000000000     0.0000000000     0.5003393452
  Co      -0.0005652465     0.3701903387     0.0000009638
  Co      -0.0004398399     0.3702145632     0.5000161060
  Co       0.9994347535     0.6292444148     0.0000009638
  Co       0.9995601601     0.6293455969     0.5000161059
  Co       0.3707555852     0.0005652465     0.0000009638
  Co       0.3706544031     0.0004398399     0.5000161060
  Co       0.3707555852     0.3701903387     0.0000009638
  Co       0.3706544031     0.3702145632     0.5000161060
  Co       0.3333333333     0.6666666667     0.0000486239
  Co       0.3333333333     0.6666666667     0.4999542738
  Co       0.6298096613     0.0005652465     0.0000009638
  Co       0.6297854368     0.0004398399     0.5000161060
  Co       0.6666666667     0.3333333333     0.0000051615
  Co       0.6666666667     0.3333333333     0.4999904606
  Co       0.6298096613     0.6292444148     0.0000009638
  Co       0.6297854368     0.6293455969     0.5000161059
  O        0.0000000002    -0.0000000002     0.0726222500
  O       -0.0000000001    -0.0000000004     0.5727780691
  O       -0.0283003335     0.1673554941     0.1298152063
  O       -0.0283727106     0.1673172889     0.6296942297
  O        0.9716997090     0.8043441759     0.1298152063
  O        0.9716272894     0.8043100005     0.6296942295
  O        0.1956558242     0.0283002949     0.1298152064
  O        0.1956899992     0.0283727108     0.6296942293
  O        0.1956558269     0.1673555285     0.1298152058
  O        0.1956899997     0.1673172891     0.6296942298
  O        0.3333333333     0.6666666667     0.1523059288
  O        0.3333333333     0.6666666666     0.6523449013
  O        0.8326445058     0.0283003332     0.1298152064
  O        0.8326827116     0.0283727108     0.6296942293
  O        0.6666666666     0.3333333334     0.1520592586
  O        0.6666666667     0.3333333334     0.6521179651
  O        0.8326444676     0.8043441735     0.1298152058
  O        0.8326827109     0.8043100004     0.6296942298
  O        0.0000000002     0.0000000004     0.4274171521
  O       -0.0000000001    -0.0000000002     0.9272339752
  O       -0.0282686656     0.1673709068     0.3701997290
  O       -0.0283324466     0.1673484842     0.8702472714
  O        0.9717313397     0.8043604280     0.3701997289
  O        0.9716675525     0.8043190691     0.8702472715
  O        0.1956395726     0.0282686651     0.3701997283
  O        0.1956809307     0.0283324469     0.8702472716
  O        0.1956395725     0.1673709067     0.3701997289
  O        0.1956809308     0.1673484841     0.8702472714
  O        0.3333333334     0.6666666667     0.3476677788
  O        0.3333333333     0.6666666666     0.8476661327
  O        0.8326290923     0.0282686649     0.3701997283
  O        0.8326515161     0.0283324468     0.8702472716
  O        0.6666666666     0.3333333333     0.3479438707
  O        0.6666666667     0.3333333333     0.8478958592
  O        0.8326290882     0.8043604279     0.3701997288
  O        0.8326515166     0.8043190691     0.8702472714

K_POINTS gamma
