&CONTROL
  calculation = 'scf'
  prefix = 'Mg_sqs0_lith'
  outdir = './tmp_Mg_sqs0_lith'
  pseudo_dir = './pseudo'
  tprnfor = .false.
  tstress = .false.
  verbosity = 'low'
  disk_io = 'low'
/

&SYSTEM
  ibrav = 0
  nat = 72
  ntyp = 4
  ecutwfc = 40.0
  ecutrho = 320.0
  occupations = 'smearing'
  smearing = 'mv'
  degauss = 0.02
  nspin = 2
  starting_magnetization(1) = 0.5
  lda_plus_u = .true.
  Hubbard_U(1) = 3.32
/

&ELECTRONS
  conv_thr = 1e-05
  mixing_mode = 'local-TF'
  mixing_beta = 0.1
  electron_maxstep = 500
  diagonalization = 'david'
/

CELL_PARAMETERS angstrom
      8.6250000000     0.0000000000     0.0000000000
     -4.3125000000     7.4694691076     0.0000000000
      0.0000000000     0.0000000000    28.4000000000

ATOMIC_SPECIES
  Co      58.9330 Co.pbe-spn-kjpaw_psl.0.3.1.UPF
  Li       6.9410 Li.pbe-s-kjpaw_psl.1.0.0.UPF
  Mg      24.3050 Mg.pbe-spnl-kjpaw_psl.1.0.0.UPF
  O       15.9990 O.pbe-n-kjpaw_psl.1.0.0.UPF

ATOMIC_POSITIONS crystal
  Li      -0.0164256596     0.0832038007     0.2941741838
  Li      -0.0172689587     0.0832925551     0.7063657710
  Li       0.0000000006     0.3333333343     0.2416602234
  Li      -0.0000000424     0.3333333013     0.7585818816
  Li       1.0164256540     0.5834628635     0.2941741840
  Li       1.0172690601     0.5833740940     0.7063657591
  Li       0.3713450306    -0.0381098410     0.2474965921
  Li       0.3718524290    -0.0369940186     0.7523761282
  Li       0.3729510198     0.3757713277     0.2989935238
  Li       0.3730135182     0.3758343611     0.7006113320
  Li       0.2280155594     0.5400656161     0.1952087386
  Li       0.2292863766     0.5394991047     0.8047206496
  Li       0.7719844386     0.1266010516     0.1952087387
  Li       0.7707135659     0.1271675669     0.8047206631
  Li       0.6270489784     0.2908953369     0.2989935232
  Li       0.6269864227     0.2908323143     0.7006113683
  Li       0.6286549677     0.7047765049     0.2474965920
  Li       0.6281475538     0.7036606795     0.7523761242
  Co      -0.0349273757    -0.0227168913     0.0002732198
  Co      -0.0004993377     0.0003410550     0.5000172665
  Co       0.0000000002     0.3333333346     0.0002608829
  Co      -0.0000000003     0.3333333333     0.5000260060
  Co       1.0349273754     0.6893835566     0.0002732198
  Co       1.0004993377     0.6663256116     0.5000172665
  Co       0.2354048055    -0.0116996206     0.0001751457
  Co       0.3343552458    -0.0000235592     0.5000159575
  Co       0.2107108634     0.2505920109     0.0001291348
  Co       0.3332914008     0.3336337393     0.5000201343
  Mg       0.3161103229     0.6250400547     0.0006218884
  Co       0.3334953287     0.6666484019     0.5000213685
  Mg       0.6838896783     0.0416266133     0.0006218877
  Co       0.6665046712     0.0000182648     0.5000213685
  Co       0.7892891351     0.4160746557     0.0001291346
  Co       0.6667085992     0.3330329274     0.5000201344
  Co       0.7645951941     0.6783662868     0.0001751451
  Co       0.6656447542     0.6666902259     0.5000159575
  O       -0.0345354459     0.0935430718     0.2238089127
  O        0.1846969871    -0.1619727196     0.7058593385
  O        0.0000000008     0.3333333302     0.1717312980
  O        0.0000003829     0.3333334617     0.6912778526
  O        1.0345354430     0.5731235950     0.2238089128
  O        0.8153030102     0.8286393793     0.7058593369
  O        0.4236114546     0.0393211098     0.1675311488
  O        0.2089909312    -0.0089498873     0.6856582773
  O        0.2488597260     0.4176190517     0.2530977954
  O        0.3633123573     0.1445659586     0.7068651895
  O        0.4386248601     0.6159747051     0.1488167932
  O        0.4173969578     0.7629289174     0.7693627457
  O        0.5613751387     0.0506919608     0.1488167931
  O        0.5826030225    -0.0962622243     0.7693627339
  O        0.7511402773     0.2490476217     0.2530977945
  O        0.6366875938     0.5221007083     0.7068651818
  O        0.5763885444     0.6273455564     0.1675311490
  O        0.7910090575     0.6756165388     0.6856582786
  O        0.1846101531    -0.1625213711     0.2944610037
  O       -0.0358094411     0.0928308542     0.7768156855
  O        0.0000000122     0.3333333395     0.3089064061
  O        0.0000000089     0.3333332882     0.8282256804
  O        0.8153898450     0.8291880359     0.2944610036
  O        1.0358093136     0.5738357444     0.7768156759
  O        0.2094709836    -0.0086389997     0.3142808042
  O        0.4219598924     0.0426577693     0.8315132415
  O        0.3634974621     0.1449297154     0.2928325140
  O        0.2488564868     0.4201068037     0.7460321143
  O        0.4179119339     0.7619206072     0.2309331470
  O        0.4410163686     0.6131238332     0.8505751163
  O        0.5820880664    -0.0952539390     0.2309331480
  O        0.5589835840     0.0535427908     0.8505751293
  O        0.6365025382     0.5217369493     0.2928325145
  O        0.7511434858     0.2465599414     0.7460321523
  O        0.7905290168     0.6753056654     0.3142808042
  O        0.5780400769     0.6240088829     0.8315132317

K_POINTS gamma
