&CONTROL
  calculation = 'scf'
  prefix = 'Mg_sqs1_lith'
  outdir = './tmp_Mg_sqs1_lith'
  pseudo_dir = './pseudo'
  tprnfor = .false.
  tstress = .false.
  verbosity = 'low'
  disk_io = 'low'
/

&SYSTEM
  ibrav = 0
  nat = 72
  ntyp = 4
  ecutwfc = 40.0
  ecutrho = 320.0
  occupations = 'smearing'
  smearing = 'mv'
  degauss = 0.02
  nspin = 2
  starting_magnetization(1) = 0.5
  lda_plus_u = .true.
  Hubbard_U(1) = 3.32
/

&ELECTRONS
  conv_thr = 1e-05
  mixing_mode = 'local-TF'
  mixing_beta = 0.1
  electron_maxstep = 500
  diagonalization = 'david'
/

CELL_PARAMETERS angstrom
      8.6250000000     0.0000000000     0.0000000000
     -4.3125000000     7.4694691076     0.0000000000
      0.0000000000     0.0000000000    28.4000000000

ATOMIC_SPECIES
  Co      58.9330 Co.pbe-spn-kjpaw_psl.0.3.1.UPF
  Li       6.9410 Li.pbe-s-kjpaw_psl.1.0.0.UPF
  Mg      24.3050 Mg.pbe-spnl-kjpaw_psl.1.0.0.UPF
  O       15.9990 O.pbe-n-kjpaw_psl.1.0.0.UPF

ATOMIC_POSITIONS crystal
  Li       0.0138515584     0.0373011810     0.2995383601
  Li       0.0153861352     0.0400293225     0.6983827486
  Li       0.0821872321     0.3694317368     0.2462940125
  Li       0.0834374378     0.3628675304     0.7529701795
  Li       0.9701926256     0.6860432709     0.2787688171
  Li       0.9744140040     0.6881558333     0.7222470532
  Li       0.3333333494     0.0000000058     0.2520342530
  Li       0.3333333420    -0.0000000043     0.7506313940
  Li       0.3099848744     0.1945167865     0.1956737665
  Li       0.3071925856     0.1972981835     0.8046944244
  Li       0.3566818196     0.8054832216     0.1956737648
  Li       0.3594740920     0.8027018174     0.8046944271
  Li       0.6528151598    -0.0373011763     0.2995383460
  Li       0.6512805574    -0.0400293207     0.6983827572
  Li       0.6964741421     0.3139568171     0.2787687926
  Li       0.6922526811     0.3118441856     0.7222470559
  Li       0.5844794418     0.6305682609     0.2462940120
  Li       0.5832292316     0.6371324694     0.7529701809
  Co       0.0381839579    -0.0795948385     0.0003214558
  Co       0.0005443452     0.0005162405     0.5000922845
  Co      -0.0854573632     0.3471150124     0.0005453507
  Co       0.0010698672     0.3335537097     0.5000906544
  Co       1.0156616514     0.6484292804     0.0007464295
  Co       1.0009765029     0.6671078867     0.5000891792
  Co       0.3333333335     0.0000000002     0.0008683240
  Co       0.3333333338     0.0000000002     0.5001039821
  Mg       0.3082386186     0.2904961362     0.0020998455
  Co       0.3332077926     0.3333214817     0.5000954034
  Mg       0.3584280482     0.7095038641     0.0020998456
  Co       0.3334588742     0.6666785184     0.5000954034
  Co       0.6284827091     0.0795948385     0.0003214558
  Co       0.6661223215    -0.0005162405     0.5000922845
  Co       0.6510050151     0.3515707194     0.0007464295
  Co       0.6656901638     0.3328921133     0.5000891792
  Co       0.7521240299     0.6528849876     0.0005453507
  Co       0.6655967995     0.6664462903     0.5000906544
  O        0.1360257422     0.0438826443     0.2438692002
  O       -0.2263912766    -0.1790868780     0.7012972449
  O        0.0500565840     0.2943849231     0.1677149865
  O       -0.0882264257     0.3392147402     0.6800130064
  O        1.1319102489     0.7651553962     0.2277241124
  O        0.6824643798     0.5254440224     0.7143813391
  O        0.3333333241    -0.0000000104     0.1703585356
  O        0.3333332152    -0.0000000095     0.6845739480
  O        0.1823706517     0.2880575659     0.1514811768
  O        0.3375930209     0.4245600568     0.7633037337
  O        0.4842960166     0.7119424251     0.1514811746
  O        0.3290736530     0.5754399487     0.7633037326
  O        0.5306409497    -0.0438826212     0.2438691946
  O        0.8930579554     0.1790868809     0.7012972446
  O        0.5347564439     0.2348445973     0.2277241211
  O        0.9842022881     0.4745559800     0.7143813384
  O        0.6166100867     0.7056150745     0.1677149853
  O        0.7548930927     0.6607852590     0.6800130067
  O       -0.2288286852    -0.1794312062     0.2967550894
  O        0.1404697237     0.0521348687     0.7534117852
  O       -0.0828017413     0.3378343278     0.3205197936
  O        0.0385789350     0.2880940509     0.8292955816
  O        0.6801158764     0.5223378625     0.2874074634
  O        1.1316263575     0.7636341425     0.7743075273
  O        0.3333330373    -0.0000001108     0.3174728477
  O        0.3333333258    -0.0000000074     0.8280292567
  O        0.3314368774     0.4212781229     0.2368682565
  O        0.1684614114     0.2803498544     0.8469634780
  O        0.3352297991     0.5787218882     0.2368682584
  O        0.4982052558     0.7196501384     0.8469634800
  O        0.8954953782     0.1794312105     0.2967550937
  O        0.5261969644    -0.0521348602     0.7534117919
  O        0.9865507753     0.4776621287     0.2874074582
  O        0.5350403218     0.2363658477     0.7743075239
  O        0.7494684315     0.6621656770     0.3205197924
  O        0.6280877343     0.7119059473     0.8292955830

K_POINTS gamma
