&CONTROL
  calculation = 'scf'
  prefix = 'Mg_sqs1_delith'
  outdir = './tmp_Mg_sqs1_delith'
  pseudo_dir = './pseudo'
  tprnfor = .false.
  tstress = .false.
  verbosity = 'low'
  disk_io = 'low'
/

&SYSTEM
  ibrav = 0
  nat = 54
  ntyp = 3
  ecutwfc = 40.0
  ecutrho = 320.0
  occupations = 'smearing'
  smearing = 'mv'
  degauss = 0.02
  nspin = 2
  starting_magnetization(1) = 0.5
  lda_plus_u = .true.
  Hubbard_U(1) = 3.32
/

&ELECTRONS
  conv_thr = 1e-05
  mixing_mode = 'local-TF'
  mixing_beta = 0.1
  electron_maxstep = 500
  diagonalization = 'david'
/

CELL_PARAMETERS angstrom
      8.6250000000     0.0000000000     0.0000000000
     -4.3125000000     7.4694691076     0.0000000000
      0.0000000000     0.0000000000    28.4000000000

ATOMIC_SPECIES
  Co      58.9330 Co.pbe-spn-kjpaw_psl.0.3.1.UPF
  Mg      24.3050 Mg.pbe-spnl-kjpaw_psl.1.0.0.UPF
  O       15.9990 O.pbe-n-kjpaw_psl.1.0.0.UPF

ATOMIC_POSITIONS crystal
  Co      -0.0112095400    -0.0401723906    -0.0000001573
  Co       0.0000000078     0.0000000139     0.5000000000
  Co       0.0016259946     0.3341462925    -0.0000001589
  Co      -0.0000000156     0.3333333267     0.5000000000
  Co       0.9887903986     0.6956294476    -0.0000001582
  Co       0.9999999807     0.6666666606     0.5000000000
  Co       0.3333332349    -0.0000003545     0.0000021098
  Co       0.3333333137    -0.0000000401     0.5000000000
  Mg       0.3333333188     0.3041590182    -0.0000000876
  Co       0.3333333282     0.3333333239     0.5000000000
  Mg       0.3333333196     0.6958407759    -0.0000000876
  Co       0.3333333200     0.6666666491     0.5000000000
  Co       0.6778762480     0.0401723638    -0.0000001573
  Co       0.6666666463    -0.0000000339     0.5000000000
  Co       0.6778761865     0.3043704762    -0.0000001582
  Co       0.6666666534     0.3333333244     0.5000000000
  Co       0.6650406278     0.6658536083    -0.0000001589
  Co       0.6666666514     0.6666666635     0.5000000000
  O        0.1556816091     0.0962586314     0.0404648025
  O       -0.0000000050    -0.0000000083     0.5563421703
  O       -0.1961525727     0.2352570636     0.0417748978
  O        0.0000000071     0.3333333364     0.5563421704
  O        1.1556818005     0.7260899139     0.0404647897
  O        1.0000000090     0.6666666694     0.5563421703
  O        0.3333333356     0.0000000025     0.1846039638
  O        0.3333333447     0.0000000231     0.5563421703
  O        0.3333333316     0.4284124557     0.1255835717
  O        0.3333333362     0.3333333375     0.5563421703
  O        0.3333333305     0.5715875318     0.1255835732
  O        0.3333333381     0.6666666736     0.5563421702
  O        0.5109849533    -0.0962586448     0.0404647919
  O        0.6666666786     0.0000000204     0.5563421703
  O        0.5109851219     0.2739104860     0.0404648018
  O        0.6666666723     0.3333333359     0.5563421704
  O        0.8628191960     0.7647429419     0.0417748972
  O        0.6666666759     0.6666666681     0.5563421703
  O       -0.0000000050    -0.0000000083     0.4436578297
  O        0.1556786156     0.0962608873     0.9595351120
  O        0.0000000071     0.3333333364     0.4436578296
  O       -0.1961526875     0.2352570032     0.9582248238
  O        1.0000000090     0.6666666694     0.4436578297
  O        1.1556787837     0.7260846214     0.9595351229
  O        0.3333333447     0.0000000231     0.4436578297
  O        0.3333333356     0.0000000025     0.8153960685
  O        0.3333333362     0.3333333375     0.4436578297
  O        0.3333333308     0.4284124515     0.8744163705
  O        0.3333333381     0.6666666736     0.4436578298
  O        0.3333333313     0.5715875360     0.8744163690
  O        0.6666666786     0.0000000204     0.4436578297
  O        0.5109879471    -0.0962609012     0.9595351225
  O        0.6666666723     0.3333333359     0.4436578296
  O        0.5109881383     0.2739157777     0.9595351108
  O        0.6666666759     0.6666666681     0.4436578297
  O        0.8628193107     0.7647430023     0.9582248244

K_POINTS gamma
