&CONTROL
  calculation = 'scf'
  prefix = 'Mg_sqs0_delith'
  outdir = './tmp_Mg_sqs0_delith'
  pseudo_dir = './pseudo'
  tprnfor = .false.
  tstress = .false.
  verbosity = 'low'
  disk_io = 'low'
/

&SYSTEM
  ibrav = 0
  nat = 54
  ntyp = 3
  ecutwfc = 40.0
  ecutrho = 320.0
  occupations = 'smearing'
  smearing = 'mv'
  degauss = 0.02
  nspin = 2
  starting_magnetization(1) = 0.5
  lda_plus_u = .true.
  Hubbard_U(1) = 3.32
/

&ELECTRONS
  conv_thr = 1e-05
  mixing_mode = 'local-TF'
  mixing_beta = 0.1
  electron_maxstep = 500
  diagonalization = 'david'
/

CELL_PARAMETERS angstrom
      8.6250000000     0.0000000000     0.0000000000
     -4.3125000000     7.4694691076     0.0000000000
      0.0000000000     0.0000000000    28.4000000000

ATOMIC_SPECIES
  Co      58.9330 Co.pbe-spn-kjpaw_psl.0.3.1.UPF
  Mg      24.3050 Mg.pbe-spnl-kjpaw_psl.1.0.0.UPF
  O       15.9990 O.pbe-n-kjpaw_psl.1.0.0.UPF

ATOMIC_POSITIONS crystal
  Co       0.0401723821     0.0289628031    -0.0000001967
  Co       0.0000000103     0.0000000040     0.5000000000
  Co      -0.0000000724     0.3333331975     0.0000026314
  Co       0.0000000051     0.3333333185     0.5000000000
  Co       0.9598276238     0.6377038361    -0.0000001968
  Co       1.0000000018     0.6666666515     0.5000000000
  Co       0.3341463361    -0.0008130288    -0.0000001982
  Co       0.3333333193    -0.0000000437     0.5000000000
  Co       0.3043705049     0.2931609462    -0.0000001968
  Co       0.3333333351     0.3333333219     0.5000000000
  Mg       0.3041590937     0.6374924180    -0.0000001092
  Co       0.3333333370     0.6666666441     0.5000000000
  Mg       0.6958408504     0.0291741745    -0.0000001092
  Co       0.6666666527    -0.0000000444     0.5000000000
  Co       0.6956294728     0.3735057055    -0.0000001967
  Co       0.6666666686     0.3333333148     0.5000000000
  Co       0.6658536520     0.6674796551    -0.0000001982
  Co       0.6666666781     0.6666666529     0.5000000000
  O       -0.0962583160     0.0594237768     0.0404647837
  O       -0.0000000057    -0.0000000034     0.5563421704
  O       -0.0000000003     0.3333333345     0.1846039653
  O       -0.0000000046     0.3333333403     0.5563421704
  O        1.0962583884     0.6072430724     0.0404647878
  O        0.9999999985     0.6666666739     0.5563421704
  O        0.2352570778     0.0980762662     0.0417748630
  O        0.3333333421     0.0000000252     0.5563421704
  O        0.2739096389     0.4295916704     0.0404647872
  O        0.3333333341     0.3333333383     0.5563421704
  O        0.4284124612     0.7617457930     0.1255835635
  O        0.3333333306     0.6666666768     0.5563421703
  O        0.5715875368    -0.0950791312     0.1255835640
  O        0.6666666753     0.0000000256     0.5563421704
  O        0.7260903448     0.2370749673     0.0404647841
  O        0.6666666644     0.3333333403     0.5563421705
  O        0.7647429463     0.5685903965     0.0417748634
  O        0.6666666613     0.6666666731     0.5563421703
  O       -0.0000000057    -0.0000000034     0.4436578296
  O       -0.0962611416     0.0594172032     0.9595351086
  O       -0.0000000046     0.3333333403     0.4436578296
  O       -0.0000000003     0.3333333345     0.8153960749
  O        0.9999999985     0.6666666739     0.4436578296
  O        1.0962612144     0.6072496466     0.9595351044
  O        0.3333333421     0.0000000252     0.4436578296
  O        0.2352570062     0.0980763377     0.9582247898
  O        0.3333333341     0.3333333383     0.4436578296
  O        0.2739162132     0.4295944964     0.9595351050
  O        0.3333333306     0.6666666768     0.4436578297
  O        0.4284124564     0.7617457883     0.8744163644
  O        0.6666666753     0.0000000256     0.4436578296
  O        0.5715875416    -0.0950791265     0.8744163639
  O        0.6666666644     0.3333333403     0.4436578295
  O        0.7260837710     0.2370721415     0.9595351081
  O        0.6666666613     0.6666666731     0.4436578297
  O        0.7647430178     0.5685903250     0.9582247894

K_POINTS gamma
