&CONTROL
  calculation = 'scf'
  prefix = 'Ti_sqs0_delith'
  outdir = './tmp_Ti_sqs0_delith'
  pseudo_dir = './pseudo'
  tprnfor = .false.
  tstress = .false.
  verbosity = 'low'
  disk_io = 'low'
/

&SYSTEM
  ibrav = 0
  nat = 54
  ntyp = 3
  ecutwfc = 40.0
  ecutrho = 320.0
  occupations = 'smearing'
  smearing = 'mv'
  degauss = 0.02
  nspin = 2
  starting_magnetization(1) = 0.5
  starting_magnetization(3) = 0.5
  lda_plus_u = .true.
  Hubbard_U(1) = 3.32
/

&ELECTRONS
  conv_thr = 1e-05
  mixing_mode = 'local-TF'
  mixing_beta = 0.1
  electron_maxstep = 500
  diagonalization = 'david'
/

CELL_PARAMETERS angstrom
      8.6250000000     0.0000000000     0.0000000000
     -4.3125000000     7.4694691076     0.0000000000
      0.0000000000     0.0000000000    28.4000000000

ATOMIC_SPECIES
  Co      58.9330 Co.pbe-spn-kjpaw_psl.0.3.1.UPF
  O       15.9990 O.pbe-n-kjpaw_psl.1.0.0.UPF
  Ti      47.8670 Ti.pbe-spn-kjpaw_psl.1.0.0.UPF

ATOMIC_POSITIONS crystal
  Co       0.0000000000     0.0000000000    -0.0000000000
  Co       0.0491972861    -0.0000000002     0.5000000000
  Co       0.0000000000     0.3333333333    -0.0000000000
  Ti       0.0000000018     0.3333333291     0.5000000000
  Co       1.0000000000     0.6666666667    -0.0000000000
  Co       1.0491972857     0.7158639522     0.5000000000
  Co       0.3333333333    -0.0000000000    -0.0000000000
  Co       0.3333333334    -0.0000000000     0.5000000000
  Co       0.3333333333     0.3333333333    -0.0000000000
  Co       0.3333333335     0.2841360473     0.5000000000
  Co       0.3333333333     0.6666666667    -0.0000000000
  Co       0.3333333332     0.7158639525     0.5000000000
  Co       0.6666666667    -0.0000000000    -0.0000000000
  Co       0.6174693807     0.0000000000     0.5000000000
  Co       0.6666666667     0.3333333333    -0.0000000000
  Co       0.6174693811     0.2841360476     0.5000000000
  Co       0.6666666667     0.6666666667    -0.0000000000
  Ti       0.6666666672     0.6666666670     0.5000000000
  O       -0.0000000000    -0.0000000000     0.0562914936
  O       -0.0864069366     0.0000000004     0.5511358714
  O       -0.0000000000     0.3333333333     0.0562914936
  O       -0.0000000006     0.3333333348     0.5609990276
  O        1.0000000000     0.6666666667     0.0562914936
  O        0.9135930628     0.5802597300     0.5511358714
  O        0.3333333333     0.0000000000     0.0562914936
  O        0.3333333333     0.0000000000     0.6275392906
  O        0.3333333333     0.3333333333     0.0562914936
  O        0.3333333329     0.4197402700     0.5511358714
  O        0.3333333333     0.6666666667     0.0562914936
  O        0.3333333335     0.5802597299     0.5511358714
  O        0.6666666667     0.0000000000     0.0562914936
  O        0.7530736034     0.0000000001     0.5511358714
  O        0.6666666667     0.3333333333     0.0562914936
  O        0.7530736034     0.4197402704     0.5511358714
  O        0.6666666667     0.6666666667     0.0562914936
  O        0.6666666665     0.6666666666     0.5609990276
  O       -0.0864069366     0.0000000004     0.4488641286
  O       -0.0000000000    -0.0000000000     0.9437085064
  O       -0.0000000006     0.3333333348     0.4390009724
  O       -0.0000000000     0.3333333333     0.9437085064
  O        0.9135930628     0.5802597300     0.4488641286
  O        1.0000000000     0.6666666667     0.9437085064
  O        0.3333333333     0.0000000000     0.3724607094
  O        0.3333333333     0.0000000000     0.9437085064
  O        0.3333333329     0.4197402700     0.4488641286
  O        0.3333333333     0.3333333333     0.9437085064
  O        0.3333333335     0.5802597299     0.4488641286
  O        0.3333333333     0.6666666667     0.9437085064
  O        0.7530736034     0.0000000001     0.4488641286
  O        0.6666666667     0.0000000000     0.9437085064
  O        0.7530736034     0.4197402704     0.4488641286
  O        0.6666666667     0.3333333333     0.9437085064
  O        0.6666666665     0.6666666666     0.4390009724
  O        0.6666666667     0.6666666667     0.9437085064

K_POINTS gamma
