&CONTROL
  calculation = 'scf'
  prefix = 'Ti_sqs1_delith'
  outdir = './tmp_Ti_sqs1_delith'
  pseudo_dir = './pseudo'
  tprnfor = .false.
  tstress = .false.
  verbosity = 'low'
  disk_io = 'low'
/

&SYSTEM
  ibrav = 0
  nat = 54
  ntyp = 3
  ecutwfc = 40.0
  ecutrho = 320.0
  occupations = 'smearing'
  smearing = 'mv'
  degauss = 0.02
  nspin = 2
  starting_magnetization(1) = 0.5
  starting_magnetization(3) = 0.5
  lda_plus_u = .true.
  Hubbard_U(1) = 3.32
/

&ELECTRONS
  conv_thr = 1e-05
  mixing_mode = 'local-TF'
  mixing_beta = 0.1
  electron_maxstep = 500
  diagonalization = 'david'
/

CELL_PARAMETERS angstrom
      8.6250000000     0.0000000000     0.0000000000
     -4.3125000000     7.4694691076     0.0000000000
      0.0000000000     0.0000000000    28.4000000000

ATOMIC_SPECIES
  Co      58.9330 Co.pbe-spn-kjpaw_psl.0.3.1.UPF
  O       15.9990 O.pbe-n-kjpaw_psl.1.0.0.UPF
  Ti      47.8670 Ti.pbe-spn-kjpaw_psl.1.0.0.UPF

ATOMIC_POSITIONS crystal
  Co       0.0000000011     0.0000000008    -0.0000000000
  Co      -0.0022622647    -0.0151066560     0.4999999927
  Co      -0.0000000028     0.3333333330    -0.0000000000
  Co       0.0022475501     0.3484327144     0.4999999927
  Co       0.9999999916     0.6666666620     0.0000000000
  Co       0.9996230903     0.6670396239     0.5000000806
  Co       0.3333333100    -0.0000000216    -0.0000000000
  Ti       0.2994176709    -0.0339283519     0.4999999555
  Co       0.3333333336     0.3333333285     0.0000000000
  Co       0.3278375053     0.3388290727     0.4999999892
  Co       0.3333333284     0.6666666590     0.0000000000
  Co       0.3182338903     0.6644188790     0.4999999927
  Co       0.6666666513    -0.0000000157    -0.0000000000
  Co       0.6721744762    -0.0055079806     0.4999999892
  Co       0.6666666670     0.3333333416     0.0000000000
  Ti       0.7005935730     0.3672473998     0.4999999555
  Co       0.6666666595     0.6666666677    -0.0000000000
  Co       0.6817732657     0.6689287102     0.4999999927
  O       -0.0000000018    -0.0000000004     0.0563374705
  O        0.2074715769     0.0805479657     0.5409859161
  O        0.0000000007     0.3333333324     0.0563374705
  O       -0.2074805998     0.2527745614     0.5409851312
  O        1.0000000040     0.6666666688     0.0563374704
  O        1.0001703127     0.6664998602     0.5567517961
  O        0.3333333477     0.0000000130     0.0563374705
  O        0.4285510671     0.0952149342     0.6268953474
  O        0.3333333331     0.3333333355     0.0563374705
  O        0.2185877062     0.4480789180     0.5393399353
  O        0.3333333349     0.6666666698     0.0563374704
  O        0.4138922749     0.8741474245     0.5409850763
  O        0.6666666754     0.0000000104     0.0563374705
  O        0.7814177879    -0.1147512282     0.5393403711
  O        0.6666666651     0.3333333265     0.0563374705
  O        0.5714516670     0.2381155688     0.6268953343
  O        0.6666666711     0.6666666663     0.0563374704
  O        0.5861188285     0.4591952891     0.5409859467
  O        0.2074715332     0.0805480634     0.4590140463
  O       -0.0000000018    -0.0000000003     0.9436625295
  O       -0.2074805558     0.2527744643     0.4590148311
  O        0.0000000007     0.3333333324     0.9436625295
  O        1.0001703129     0.6664998607     0.4432483488
  O        1.0000000040     0.6666666688     0.9436625296
  O        0.4285510640     0.0952149310     0.3731046957
  O        0.3333333477     0.0000000130     0.9436625295
  O        0.2185876959     0.4480789283     0.4606600541
  O        0.3333333331     0.3333333355     0.9436625295
  O        0.4138923720     0.8741473804     0.4590148860
  O        0.3333333349     0.6666666698     0.9436625296
  O        0.7814177981    -0.1147512383     0.4606596184
  O        0.6666666754     0.0000000105     0.9436625295
  O        0.5714516701     0.2381155720     0.3731047088
  O        0.6666666651     0.3333333264     0.9436625295
  O        0.5861187313     0.4591953330     0.4590140156
  O        0.6666666711     0.6666666663     0.9436625296

K_POINTS gamma
