&CONTROL
  calculation = 'scf'
  prefix = 'Ti_sqs0_lith'
  outdir = './tmp_Ti_sqs0_lith'
  pseudo_dir = './pseudo'
  tprnfor = .false.
  tstress = .false.
  verbosity = 'low'
  disk_io = 'low'
/

&SYSTEM
  ibrav = 0
  nat = 72
  ntyp = 4
  ecutwfc = 40.0
  ecutrho = 320.0
  occupations = 'smearing'
  smearing = 'mv'
  degauss = 0.02
  nspin = 2
  starting_magnetization(1) = 0.5
  starting_magnetization(4) = 0.5
  lda_plus_u = .true.
  Hubbard_U(1) = 3.32
/

&ELECTRONS
  conv_thr = 1e-05
  mixing_mode = 'local-TF'
  mixing_beta = 0.1
  electron_maxstep = 500
  diagonalization = 'david'
/

CELL_PARAMETERS angstrom
      8.6250000000     0.0000000000     0.0000000000
     -4.3125000000     7.4694691076     0.0000000000
      0.0000000000     0.0000000000    28.4000000000

ATOMIC_SPECIES
  Co      58.9330 Co.pbe-spn-kjpaw_psl.0.3.1.UPF
  Li       6.9410 Li.pbe-s-kjpaw_psl.1.0.0.UPF
  O       15.9990 O.pbe-n-kjpaw_psl.1.0.0.UPF
  Ti      47.8670 Ti.pbe-spn-kjpaw_psl.1.0.0.UPF

ATOMIC_POSITIONS crystal
  Li      -0.0040189476     0.0214705689     0.2411200304
  Li      -0.0039942990     0.0214765367     0.7588837016
  Li      -0.0000320466     0.3332745909     0.3016109554
  Li      -0.0000318472     0.3332694587     0.6983923867
  Li       0.9957908722     0.6406407255     0.2410841644
  Li       0.9957893901     0.6405823642     0.7589244941
  Li       0.3333323943    -0.0000014982     0.1269284974
  Li       0.3333333463    -0.0000002089     0.8730992474
  Li       0.3118588323     0.3372132190     0.2411338114
  Li       0.3118438920     0.3371678524     0.7588684870
  Li       0.3115162623     0.6406485569     0.2410849675
  Li       0.3114596561     0.6405821294     0.7589245203
  Li       0.6921147978     0.0214493129     0.2411230838
  Li       0.6921387183     0.0214771457     0.7588837930
  Li       0.6919875050     0.3372011834     0.2411360613
  Li       0.6919916085     0.3371682096     0.7588685523
  Li       0.6667125463     0.6667507562     0.3152160998
  Li       0.6667113626     0.6667563166     0.6847802475
  Co      -0.0082122498     0.0521945901    -0.0000010877
  Co       0.0617612905    -0.0000309159     0.4999999417
  Co       0.0000016559     0.3333365081    -0.0000004981
  Ti      -0.0000557362     0.3332263944     0.5000013937
  Co       0.9917973267     0.6062686940    -0.0000010857
  Co       1.0617471087     0.7284240976     0.4999999384
  Co       0.3332918351    -0.0000795272     0.0000089935
  Co       0.3333325391    -0.0000015240     0.4999997135
  Co       0.2811407701     0.3415548055    -0.0000010616
  Co       0.3333606446     0.2715869990     0.4999999391
  Co       0.2811380920     0.6062684895    -0.0000011102
  Co       0.3333435564     0.7284235799     0.4999999437
  Co       0.7270739697     0.0521945101    -0.0000011168
  Co       0.6048739805    -0.0000314069     0.4999999451
  Co       0.7270809608     0.3415550863    -0.0000010662
  Co       0.6048920236     0.2715865918     0.4999999372
  Co       0.6666663500     0.6666660617    -0.0000008915
  Ti       0.6666901099     0.6667116406     0.5000065101
  O        0.0635251569    -0.0583468978     0.1821100881
  O       -0.0854159134     0.0045900929     0.6937209670
  O        0.0002846907     0.3338554293     0.2364977581
  O        0.0000491400     0.3334277204     0.5620277727
  O        1.0636118039     0.7885808585     0.1821223443
  O        0.9145238330     0.5767025120     0.6937040715
  O        0.3333361360     0.0000058627     0.0603419032
  O        0.3338161007     0.0009678748     0.7433129693
  O        0.3916673829     0.2697861043     0.1820839556
  O        0.3287154418     0.4187621615     0.6937009822
  O        0.3916349682     0.7885814113     0.1821208175
  O        0.3288453972     0.5767025718     0.6937041066
  O        0.5447967080    -0.0583489440     0.1821077925
  O        0.7566725427     0.0045898910     0.6937209717
  O        0.5447880373     0.2697915525     0.1820831869
  O        0.7567133158     0.4187622415     0.6937009519
  O        0.6665771682     0.6665026241     0.2475859524
  O        0.6666461937     0.6666274382     0.5624008148
  O       -0.0854150140     0.0045789108     0.3062698968
  O        0.0634942551    -0.0583409970     0.8178854346
  O        0.0000491693     0.3334275659     0.4379665422
  O        0.0002852356     0.3339051518     0.7635053502
  O        0.9145313442     0.5767095489     0.3062850948
  O        1.0635909725     0.7885479911     0.8178710156
  O        0.3338059577     0.0008664165     0.2566831118
  O        0.3333364655     0.0000054912     0.9396703600
  O        0.3287243238     0.4187586037     0.3062892236
  O        0.3916616861     0.2698185064     0.8179134603
  O        0.3288430964     0.5767071933     0.3062862319
  O        0.3916236961     0.7885479779     0.8178709715
  O        0.7566652639     0.0045863192     0.3062700797
  O        0.5448313419    -0.0583409215     0.8178853690
  O        0.7567032632     0.4187552878     0.3062882694
  O        0.5448234010     0.2698183341     0.8179134388
  O        0.6666462088     0.6666273737     0.4376166333
  O        0.6665829581     0.6664988465     0.7524106712

K_POINTS gamma
